# Copyright 2015 - 2023 The Cockroach Authors. All rights reserved.
# Copyright Materialize, Inc. and contributors. All rights reserved.
#
# Use of this software is governed by the Business Source License
# included in the LICENSE file at the root of this repository.
#
# As of the Change Date specified in that file, in accordance with
# the Business Source License, use of this software will be governed
# by the Apache License, Version 2.0.
#
# This file is derived from the logic test suite in CockroachDB. The
# original file was retrieved on July 6, 2026 from:
#
#     https://github.com/cockroachdb/cockroach/blob/358e0d87912365b8976c55ab9b3292e999cf720d/pkg/sql/logictest/testdata/logic_test/builtin_function
#
# That commit is tagged v23.1.0. CockroachDB v23.1 is licensed under
# the Business Source License 1.1 with a Change Date of 2026-04-01 and
# a Change License of Apache 2.0, so as of the retrieval date the
# original source code is subject to the terms of the Apache 2.0
# license, a copy of which can be found in the LICENSE file at the
# root of this repository.

mode cockroach

# tenant-capability-override-opt: can_check_consistency=true

statement ok
CREATE TABLE foo (a int)

statement ok
INSERT INTO foo (a) VALUES (1)

query error unknown schema 'foo'
SELECT foo.bar()

query error function "pg_catalog\.defaults" does not exist
SELECT pg_catalog.defaults()

query error function "defaults" does not exist
SELECT defaults()

# Not supported by Materialize.
onlyif cockroach
query II colnames
SELECT length('roach7'), length(b'roach77')
----
length length
6      7

# Not supported by Materialize.
onlyif cockroach
query IIIIII
SELECT length('Hello, 世界'), length(b'Hello, 世界'),
       char_length('Hello, 世界'), char_length(b'Hello, 世界'),
       character_length('Hello, 世界'), character_length(b'Hello, 世界')
----
9 13 9 13 9 13

statement error function length\(integer\) does not exist
SELECT length(23)

# Not supported by Materialize.
onlyif cockroach
query III
SELECT octet_length('Hello'), octet_length('世界'), octet_length(b'世界')
----
5 6 6

# Not supported by Materialize.
onlyif cockroach
query III
SELECT bit_length('Hello'), bit_length('世界'), bit_length(b'世界')
----
40 48 48

query TTTTTTTT
SELECT quote_ident('abc'), quote_ident('ab.c'), quote_ident('ab"c'), quote_ident('世界'),
       quote_ident('array'), -- reserved keyword
       quote_ident('family'), -- type/func name keyword
       quote_ident('bigint'), -- col name keyword
       quote_ident('alter') -- unreserved keyword
----
abc  "ab.c"  "ab""c"  "世界"  "array"  family  bigint  alter

# Not supported by Materialize.
onlyif cockroach
query TTTT
SELECT quote_literal('abc'), quote_literal('ab''c'), quote_literal('ab"c'), quote_literal(e'ab\nc')
----
'abc'  e'ab\'c'  'ab"c'  e'ab\nc'

# Not supported by Materialize.
onlyif cockroach
query TTTTTTTT
SELECT
 quote_literal(123::string), quote_nullable(123::string),
 quote_literal(123), quote_nullable(123),
 quote_literal(true), quote_nullable(true),
 quote_literal(123.3), quote_nullable(123.3)
----
'123'  '123'  '123'  '123'  'true'  'true'  '123.3'  '123.3'

# Not supported by Materialize.
onlyif cockroach
query TTTTTT
SELECT
 quote_literal('1d'::interval),	quote_nullable('1d'::interval),
 quote_literal('2018-06-11 12:13:14'::timestamp), quote_nullable('2018-06-11 12:13:14'::timestamp),
 quote_literal('2018-06-11'::date), quote_nullable('2018-06-11'::date)
----
'1 day'  '1 day'  '2018-06-11 12:13:14'  '2018-06-11 12:13:14'  '2018-06-11'  '2018-06-11'

# Not supported by Materialize.
onlyif cockroach
query TTBB
SELECT
 quote_literal(null::int), quote_nullable(null::int),
 quote_literal(null::int) IS NULL, quote_nullable(null::int) IS NULL
----
NULL  NULL  true  false

# Check that quote_literal is properly sensitive to bytea_output.

# Not supported by Materialize.
onlyif cockroach
query TT
SELECT quote_literal(b'abc'), quote_nullable(b'abc')
----
e'\\x616263'  e'\\x616263'

statement ok
SET bytea_output = 'escape'

# Not supported by Materialize.
onlyif cockroach
query TT
SELECT quote_literal(b'abc'), quote_nullable(b'abc')
----
'abc'  'abc'

statement ok
RESET bytea_output

query T colnames
SELECT upper('roacH7')
----
upper
ROACH7

# Not supported by Materialize.
onlyif cockroach
query T
SELECT unaccent(str) FROM ( VALUES
   ('no_special_CHARACTERS1!'),
   ('Żółć'),
   ('⃞h̀ＥＬＬＯ`̀́⃞'),
   ('Softhyphen­separator'),
   ('some ̂thing')
) tbl(str)
----
no_special_CHARACTERS1!
Zolc
hELLO`
Softhyphen-separator
something

statement error function upper\(numeric\) does not exist
SELECT upper(2.2)

query T colnames
SELECT lower('RoacH7')
----
lower
roach7

statement error function lower\(integer\) does not exist
SELECT lower(32)

# Not supported by Materialize.
onlyif cockroach
# Multiplying by zero so the result is deterministic.
query R
SELECT random() * 0.0
----
0

# Not supported by Materialize.
onlyif cockroach
# Concatenating 'empty' because the empty string doesn't work in these tests.
query T
SELECT concat() || 'empty'
----
empty

query T
SELECT concat('RoacH', NULL)
----
RoacH

# Not supported by Materialize.
onlyif cockroach
statement error unknown signature: concat\(string, bool, decimal, bool\)
SELECT concat('RoacH', false, 64.532, TRUE)

query T
SELECT substr('RoacH', 2, 3)
----
oac

query T
SELECT substring('RoacH', 2, 3)
----
oac

query T
SELECT substring('💩oacH', 2, 3)
----
oac

query T
SELECT substring('RoacH' from 2 for 3)
----
oac

# Not supported by Materialize.
onlyif cockroach
query T
SELECT substring('RoacH' for 3 from 2)
----
oac

query T
SELECT substr('RoacH', 2)
----
oacH

query T
SELECT substr('💩oacH', 2)
----
oacH

query T
SELECT substring('RoacH' from 2)
----
oacH

query T
SELECT substr('RoacH', -2)
----
RoacH

query T
SELECT substr('RoacH', -2, 4)
----
R

query T
SELECT substr('12345', 2, 77)
----
2345

query T
SELECT substr('12345', -2, 77)
----
12345

statement error negative substring length not allowed
SELECT substr('12345', 2, -1)

# Not supported by Materialize.
onlyif cockroach
query T
SELECT substr('string', 4827075662841736053, 5123273972570225659) || 'empty'
----
empty

query T
SELECT substring('12345' for 3)
----
123

# Not supported by Materialize.
onlyif cockroach
query T
SELECT substring('foobar' from 'o.b')
----
oob

# Not supported by Materialize.
onlyif cockroach
query T
SELECT substring('f(oabaroob' from '\(o(.)b')
----
a

# Not supported by Materialize.
onlyif cockroach
query T
SELECT substring('f(oabaroob' from '+(o(.)b' for '+')
----
a

query error invalid input syntax for type integer: invalid digit found in string: "\\\(o\(\.\)b"
SELECT substring('f(oabaroob' from '\(o(.)b' for '+')

# Not supported by Materialize.
onlyif cockroach
query error unknown signature: substring\(\)
SELECT substring()

# Adding testcases for substring against bit array.

# Not supported by Materialize.
onlyif cockroach
query TTT
SELECT substring(B'11110000', 0), substring(B'11110000', -1), substring(B'11110000', 5)
----
11110000 11110000 0000

# Not supported by Materialize.
onlyif cockroach
query TTT
SELECT substring(B'11110000', 8), substring(B'11110000', 10), substring(B'', 0)
----
0  ·  ·

# Not supported by Materialize.
onlyif cockroach
query TTT
SELECT substring('11100011'::bit(8), 4), substring('11100011'::bit(6), 4), substring(B'', 0, 1)
----
00011 000  ·

# Not supported by Materialize.
onlyif cockroach
query TTT
SELECT substring(B'11110000', 0, 4), substring(B'11110000', -1, 4), substring(B'11110000', 5, 10)
----
111 11 0000

# Not supported by Materialize.
onlyif cockroach
query TTT
SELECT substring(B'11110000', 8, 1), substring(B'11110000', 8, 0), substring(B'11110000', 10, 5)
----
0  ·  ·

# Not supported by Materialize.
onlyif cockroach
query TT
SELECT substring('11100011'::bit(10), 4, 10), substring('11100011'::bit(8), 1, 8)
----
0001100 11100011

# Not supported by Materialize.
onlyif cockroach
query TTT
SELECT substring(B'10001000' FOR 4 FROM 0), substring(B'10001000' FROM 0 FOR 4), substring(B'10001000' FOR 4)
----
100 100 1000

query error type "bit" does not exist
SELECT substring('11100011'::bit(10), 4, -1)

# Adding testcases for substring against byte array.

# Not supported by Materialize.
onlyif cockroach
query TT
SELECT substring(b'abc', 0), substring(b'\x61\x62\x63', -1)
----
abc abc

# Not supported by Materialize.
onlyif cockroach
query TT
SELECT substring(b'abc', 3), substring(b'abc', 5)
----
c  ·

# Not supported by Materialize.
onlyif cockroach
query T
SELECT substring('abc'::bytea, 0)
----
abc

# Not supported by Materialize.
onlyif cockroach
query TT
SELECT substring(b'\x61\x62\x63', 0, 4), substring(b'abc', -1, 4)
----
abc ab

# Not supported by Materialize.
onlyif cockroach
query TTT
SELECT substring(b'abc', 3, 1), substring(b'abc', 3, 0), substring(b'abc', 4, 3)
----
c  ·  ·

# Not supported by Materialize.
onlyif cockroach
query T
SELECT substring('abc'::bytea, 0, 4)
----
abc

# Not supported by Materialize.
onlyif cockroach
query TTT
SELECT substring(b'abc' FOR 3 FROM 1), substring(b'abc' FROM 1 FOR 3), substring(b'abc' FOR 3)
----
abc abc abc

query error function substring\(bytea, integer, integer\) does not exist
SELECT substring('11100011'::bytea, 4, -1)

# Not supported by Materialize.
onlyif cockroach
query TTTTT
SELECT
  encode(substring(decode('ff0001', 'hex'), 1), 'hex'),
  encode(substring(decode('ff0001', 'hex'), 1, 1), 'hex'),
  encode(substring(decode('ff0001', 'hex'), 1, 7), 'hex'),
  encode(substring(decode('ff0001', 'hex'), 2), 'hex'),
  encode(substring(decode('ff0001', 'hex'), 4), 'hex')
----
ff0001  ff  ff0001  0001  ·

# Not supported by Materialize.
onlyif cockroach
query TTTTTTTTTT
SELECT
  encode(substring(decode('5c0001', 'hex'), 1), 'hex'),
  encode(substring(decode('aa5c0001', 'hex'), 1), 'hex'),
  encode(substring(decode('aa5c0001', 'hex'), 2), 'hex'),
  encode(substring(decode('aa5c1a1a1a1a0001', 'hex'), 2), 'hex'),
  encode(substring(decode('5c0001', 'hex'), 1, 1), 'hex'),
  encode(substring(decode('aa5c0001', 'hex'), 1, 2), 'hex'),
  encode(substring(decode('aa5c0001', 'hex'), 2, 2), 'hex'),
  encode(substring(decode('aa5c1a1a1a1a0001', 'hex'), 2, 2), 'hex'),
  encode(substring(decode('5c0001', 'hex'), 1), 'escape'),
  encode(substring(decode('aa5c0001', 'hex'), 2, 1), 'escape')
----
5c0001  aa5c0001  5c0001  5c1a1a1a1a0001  5c  aa5c  5c00  5c1a  \\\000\001  \\

query error function concat_ws\(\) does not exist
SELECT concat_ws()

query T
SELECT concat_ws(NULL::STRING, 'a', 'b')
----
NULL

query T
SELECT concat_ws(',', 'abcde', NULL)
----
abcde

query T
SELECT concat_ws(',', 'abcde', '2')
----
abcde,2

# Not supported by Materialize.
onlyif cockroach
statement error unknown signature: concat_ws\(string, string, int, unknown, int\)
SELECT concat_ws(',', 'abcde', 2, NULL, 22)

query T
SELECT split_part('abc~@~def~@~ghi', '~@~', 2)
----
def

query T
SELECT repeat('Pg', 4)
----
PgPgPgPg

query T
SELECT repeat('Pg', -1) || 'empty'
----
empty

statement error function repeat\(unknown, bigint\) does not exist
SELECT repeat('s', 9223372036854775807)

# Regression for #19035.
statement error "6978072892806141784" integer out of range
SELECT repeat('1234567890'::string, 6978072892806141784::int)

query I
SELECT ascii('x')
----
120

query I
select ascii('禅')
----
31109

# Not supported by Materialize.
onlyif cockroach
query error ascii\(\): the input string must not be empty
select ascii('')

query T
select chr(122)
----
z

query T
select chr(ascii('Z'))
----
Z

query T
select chr(31109)
----
禅

query error requested character too large for encoding: \-1
SELECT chr(-1)

query T
SELECT md5('abc')
----
900150983cd24fb0d6963f7d28e17f72

# Not supported by Materialize.
onlyif cockroach
query T
SELECT sha1('abc')
----
a9993e364706816aba3e25717850c26c9cd0d89d

query T
SELECT sha224('abc')
----
[35, 9, 125, 34, 52, 5, 216, 34, 134, 66, 164, 119, 189, 162, 85, 179, 42, 173, 188, 228, 189, 160, 179, 247, 227, 108, 157, 167]

query T
SELECT sha256('abc')
----
[186, 120, 22, 191, 143, 1, 207, 234, 65, 65, 64, 222, 93, 174, 34, 35, 176, 3, 97, 163, 150, 23, 122, 156, 180, 16, 255, 97, 242, 0, 21, 173]

query T
SELECT sha384('abc')
----
[203, 0, 117, 63, 69, 163, 94, 139, 181, 160, 61, 105, 154, 198, 80, 7, 39, 44, 50, 171, 14, 222, 209, 99, 26, 139, 96, 90, 67, 255, 91, 237, 128, 134, 7, 43, 161, 231, 204, 35, 88, 186, 236, 161, 52, 200, 37, 167]

# Not supported by Materialize.
onlyif cockroach
query IIII
SELECT fnv32('abc'), fnv32a('abc'), fnv64('abc'), fnv64a('abc')
----
1134309195  440920331  -2820157060406071861  -1792535898324117685

# Not supported by Materialize.
onlyif cockroach
query II
SELECT crc32ieee('abc'), crc32c('abc')
----
891568578  910901175

# Regression tests for #29754
query T
SELECT md5(NULL::STRING)
----
NULL

query T
SELECT md5('')
----
d41d8cd98f00b204e9800998ecf8427e

# Not supported by Materialize.
onlyif cockroach
query T
SELECT md5(NULL::STRING, NULL::STRING)
----
NULL

# Not supported by Materialize.
onlyif cockroach
query T
SELECT sha1(NULL::STRING)
----
NULL

# Not supported by Materialize.
onlyif cockroach
query T
SELECT sha224(NULL::STRING)
----
NULL

# Not supported by Materialize.
onlyif cockroach
query T
SELECT sha256(NULL::STRING)
----
NULL

# Not supported by Materialize.
onlyif cockroach
query T
SELECT sha384(NULL::STRING)
----
NULL

# Not supported by Materialize.
onlyif cockroach
query T
SELECT sha512(NULL::STRING, NULL::STRING)
----
NULL

# Not supported by Materialize.
onlyif cockroach
query T
SELECT fnv32(NULL::STRING)
----
NULL

# Not supported by Materialize.
onlyif cockroach
query T
SELECT to_hex(2147483647)
----
7fffffff

query I
SELECT strpos('high', 'a')
----
0

query I
SELECT strpos('high', 'ig')
----
2

query I
SELECT strpos('💩high', 'ig')
----
3

# Not supported by Materialize.
onlyif cockroach
query III
SELECT strpos(B'00001111', B'1111'), strpos(B'', B''), strpos(B'0000111', B'1111')
----
5 1 0

# Not supported by Materialize.
onlyif cockroach
query I
SELECT strpos('000001'::varbit, '1'::varbit)
----
6

# Not supported by Materialize.
onlyif cockroach
query I
SELECT position(B'100' in B'100101')
----
1

# Not supported by Materialize.
onlyif cockroach
query III
SELECT strpos(b'\x61\145aabc', b'abc'), strpos(b'', b''), strpos(b'ttt\x61\x61c', b'abc')
----
4 1 0

# Not supported by Materialize.
onlyif cockroach
query I
SELECT position('\x616263'::bytea in 'abc'::bytea)
----
1

query I
SELECT position('ig' in 'high')
----
2

query I
SELECT position('a' in 'high')
----
0

# Not supported by Materialize.
onlyif cockroach
query error unknown signature: strpos\(\)
SELECT position()

# Not supported by Materialize.
onlyif cockroach
query T
SELECT overlay('123456789' placing 'xxxx' from 3)
----
12xxxx789

# Not supported by Materialize.
onlyif cockroach
query T
SELECT overlay('123456789' placing 'xxxx' from 3 for 2)
----
12xxxx56789

# Not supported by Materialize.
onlyif cockroach
query T
SELECT overlay('123456789' placing 'xxxx' from 3 for 6)
----
12xxxx9

# Not supported by Materialize.
onlyif cockroach
query T
SELECT overlay('123456789' placing 'xxxx' from 15 for 6)
----
123456789xxxx

# Not supported by Materialize.
onlyif cockroach
query T
SELECT overlay('123456789' placing 'xxxx' from 3 for 10)
----
12xxxx

# Not supported by Materialize.
onlyif cockroach
query T
SELECT overlay('123456789' placing 'xxxx' from 3 for -1)
----
12xxxx23456789

# Not supported by Materialize.
onlyif cockroach
query T
SELECT overlay('123456789' placing 'xxxx' from 3 for -8)
----
12xxxx123456789

# Not supported by Materialize.
onlyif cockroach
query T
SELECT overlay('💩123456789' placing 'xxxxÂ' from 3 for 3)
----
💩1xxxxÂ56789

# Not supported by Materialize.
onlyif cockroach
query error non-positive substring length not allowed: -1
SELECT overlay('123456789' placing 'xxxx' from -1 for 6)

query T
SELECT btrim('xyxtrimyyx', 'xy')
----
trim

query T
SELECT trim('xy' from 'xyxtrimyyx')
----
trim

query T
SELECT trim(both 'xy' from 'xyxtrimyyx')
----
trim

query T
SELECT 'a' || btrim('    postgres    ') || 'b'
----
apostgresb

query T
SELECT ltrim('zzzytrimxyz', 'xyz')
----
trimxyz

query T
SELECT trim(leading 'xyz' from 'zzzytrimxyz')
----
trimxyz

query T
SELECT ltrim('   trimxyz')
----
trimxyz

query T
SELECT trim(leading '   trimxyz')
----
trimxyz

query T
SELECT trim(leading from '   trimxyz')
----
trimxyz


query T
SELECT rtrim('xyzzzzytrimxyz', 'xyz')
----
xyzzzzytrim

query T
SELECT trim(trailing 'xyz' from 'xyzzzzytrimxyz')
----
xyzzzzytrim

query T
SELECT 'a' || rtrim(' zzzytrimxyz   ')
----
a zzzytrimxyz

query T
SELECT reverse('abcde')
----
edcba

query T
SELECT reverse('世界')
----
界世

query T
SELECT replace('abcdefabcdef', 'cd', 'XX')
----
abXXefabXXef

query T
SELECT replace(initcap('hi THOMAS'), ' ', '')
----
HiThomas

query T
SELECT initcap('THOMAS')
----
Thomas

# Not supported by Materialize.
onlyif cockroach
query T
SELECT left('💩abcde'::bytes, 2)
----
[240 159]

# Not supported by Materialize.
onlyif cockroach
query T
SELECT right('abcde💩'::bytes, 2)
----
[146 169]

query T
SELECT left('💩abcde', 2)
----
💩a

query T
SELECT right('abcde💩', 2)
----
e💩

query RRRIIR
SELECT abs(-1.2::float), abs(1.2::float), abs(-0.0::float), abs(0), abs(1), abs(-1.2121::decimal)
----
1.2 1.2 0 0 1 1.2121

query R
SELECT abs(NULL)
----
NULL

query error "\-9223372036854775808" bigint out of range
SELECT abs(-9223372036854775808)

query I
SELECT abs(-9223372036854775807)
----
9223372036854775807

# Not supported by Materialize.
onlyif cockroach
query B
SELECT abs(sin(pi())) < 1e-12
----
true

subtest standard_float_digits

# Not supported by Materialize.
onlyif cockroach
query RR
SELECT acos(-0.5), round(acos(0.5), 15)
----
2.0943951023931957  1.047197551196598

query RR
SELECT cot(-0.5), cot(0.5)
----
-1.830487721712452  1.830487721712452

# Not supported by Materialize.
onlyif cockroach
query RRR
SELECT asin(-0.5), asin(0.5), asin(1.5)
----
-0.5235987755982989  0.5235987755982989  NaN

query RR
SELECT atan(-0.5), atan(0.5)
----
-0.4636476090008061  0.4636476090008061

# Not supported by Materialize.
onlyif cockroach
query RR
SELECT atan2(-10.0, 5.0), atan2(10.0, 5.0)
----
-1.1071487177940904  1.1071487177940904

# Not supported by Materialize.
onlyif cockroach
query RRR
SELECT cbrt(-1.0::float), round(cbrt(27.0::float), 15), cbrt(19.3::decimal)
----
-1 3 2.6823725926296729544


query RRRRR
SELECT ceil(-0.5::float), ceil(0.5::float), ceiling(0.5::float), ceil(0.1::decimal), ceiling (-0.9::decimal)
----
-0  1  1  1  0

query RR
SELECT cos(-0.5), cos(0.5)
----
0.8775825618903728  0.8775825618903728

query RRR
SELECT sin(-1.0), sin(0.0), sin(1.0)
----
-0.8414709848078965  0  0.8414709848078965

query RR
SELECT degrees(-0.5), degrees(0.5)
----
-28.64788975654116  28.64788975654116

subtest extra_float_digits_3

statement ok
SET extra_float_digits = 3

# Not supported by Materialize.
onlyif cockroach
query RR
SELECT acos(-0.5), round(acos(0.5), 15)
----
2.0943951023931957  1.047197551196598

query RR
SELECT cot(-0.5), cot(0.5)
----
-1.830487721712452  1.830487721712452

# Not supported by Materialize.
onlyif cockroach
query RRR
SELECT asin(-0.5), asin(0.5), asin(1.5)
----
-0.5235987755982989  0.5235987755982989  NaN

query RR
SELECT atan(-0.5), atan(0.5)
----
-0.4636476090008061  0.4636476090008061

# Not supported by Materialize.
onlyif cockroach
query RR
SELECT atan2(-10.0, 5.0), atan2(10.0, 5.0)
----
-1.1071487177940904  1.1071487177940904

# Not supported by Materialize.
onlyif cockroach
query RRR
SELECT cbrt(-1.0::float), round(cbrt(27.0::float), 15), cbrt(19.3::decimal)
----
-1 3 2.6823725926296729544

query RRRRR
SELECT ceil(-0.5::float), ceil(0.5::float), ceiling(0.5::float), ceil(0.1::decimal), ceiling(-0.9::decimal)
----
-0  1  1  1  0

query RR
SELECT cos(-0.5), cos(0.5)
----
0.8775825618903728  0.8775825618903728

query RRR
SELECT sin(-1.0), sin(0.0), sin(1.0)
----
-0.8414709848078965  0  0.8414709848078965

query RR
SELECT degrees(-0.5), degrees(0.5)
----
-28.64788975654116  28.64788975654116

statement ok
SET extra_float_digits = 0

subtest other_tests

# Not supported by Materialize.
onlyif cockroach
query IIII
SELECT div(-1::int, 2::int), div(1::int, 2::int), div(9::int, 4::int), div(-9::int, 4::int)
----
0 0 2 -2

# Not supported by Materialize.
onlyif cockroach
query RRRRRR
SELECT div(-1.0::float, 2.0), div(1.0::float, 2.0), div(9.0::float, 4.0), div(-9.0::float, 4.0), div(1.0::float, 0.0), div(1111.0::decimal, 9.44)
----
-0 0 2 -2 +Inf 117

query error function "div" does not exist
SELECT div(1.0::decimal, 0.0::decimal)

query error function "div" does not exist
SELECT div(1::int, 0::int)

# Not supported by Materialize.
onlyif cockroach
# math.Exp(1.0) returns different results on amd64 vs arm64.
# Round to make this test consistent across archs.
# See https://github.com/golang/go/issues/20319.
query RRR
SELECT exp(-1.0::float), round(exp(1.0::float), 13), exp(2.0::decimal)
----
0.367879441171442  2.718281828459  7.3890560989306502272

query error "1E2000" is out of range for type numeric: exceeds maximum precision 39
SELECT exp(1e2000::decimal)

query RRR
SELECT floor(-1.5::float), floor(1.5::float), floor(9.123456789::decimal)
----
-2 1 9

# Not supported by Materialize.
onlyif cockroach
query BBBBBB
SELECT 1::FLOAT IS NAN, 1::FLOAT IS NOT NAN, isnan(1::FLOAT), 'NaN'::FLOAT IS NAN, 'NaN'::FLOAT IS NOT NAN, isnan('NaN'::FLOAT)
----
false true false true false true

# Not supported by Materialize.
onlyif cockroach
query RRR
SELECT ln(-2.0::float), ln(2.0::float), ln(2.5::decimal)
----
NaN  0.693147180559945  0.91629073187415506518

query error function ln is not defined for negative numbers
SELECT ln(-100.000::decimal)

query error function ln is not defined for zero
SELECT ln(0::decimal)

query RR
SELECT log(10.0::float), log(100.000::decimal)
----
1  2

# Not supported by Materialize.
onlyif cockroach
query R
SELECT log(2.0::float, 4.0::float)
----
2

query R
SELECT log(2.0::decimal, 4.0::decimal)
----
2

query error function log\(double precision, double precision\) does not exist
SELECT log(2.0::float, -10.0::float)

query error function log\(double precision, double precision\) does not exist
SELECT log(2.0::float, 0.0::float)

query error function log is not defined for negative numbers
SELECT log(2.0::decimal, -10.0::decimal)

query error function log is not defined for zero
SELECT log(2.0::decimal, 0.0::decimal)

query error function log10 is not defined for negative numbers
SELECT log(-100.000::decimal)

query error function log10 is not defined for zero
SELECT log(0::decimal)

# Not supported by Materialize.
onlyif cockroach
query RRIR
SELECT mod(5.0::float, 2.0), mod(1.0::float, 0.0), mod(5, 2), mod(19.3::decimal, 2)
----
1 NaN 1 1.3

# mod returns the same results as PostgreSQL 9.4.4
# in tests below (except for the error message).

query error division by zero
SELECT mod(5, 0)

query error division by zero
SELECT mod(5::decimal, 0::decimal)

query II
SELECT mod(-100, -8), mod(-100, 8)
----
-4 -4

query I
SELECT mod(-9223372036854775808, 3)
----
-2

query I
SELECT mod(-9223372036854775808, -1)
----
0

query I
SELECT mod(9223372036854775807, -1)
----
0

query I
SELECT mod(9223372036854775807, -2)
----
1

query I
SELECT mod(9223372036854775807, 1)
----
0

query I
SELECT mod(9223372036854775807, 2)
----
1

query I
SELECT mod(9223372036854775807, 4)
----
3

# div and mod are a logical pair

# Not supported by Materialize.
onlyif cockroach
query R
SELECT div(9.0::float, 2.0) * 2.0 + mod(9.0::float, 2.0)
----
9

# Not supported by Materialize.
onlyif cockroach
query R
SELECT div(9.0::float, -2.0) * -2.0 + mod(9.0::float, -2.0)
----
9

# Not supported by Materialize.
onlyif cockroach
query R
SELECT div(-9.0::float, 2.0) * 2.0 + mod(-9.0::float, 2.0)
----
-9

# Not supported by Materialize.
onlyif cockroach
query R
SELECT div(-9.0::float, -2.0) * -2.0 + mod(-9.0::float, -2.0)
----
-9

# Not supported by Materialize.
onlyif cockroach
query R
SELECT pi()
----
3.14159265358979

query II
SELECT pow(-2::int, 3::int), pow(2::int, 3::int)
----
-8 8

# Not supported by Materialize.
onlyif cockroach
statement error integer out of range
SELECT pow(2::int, -3::int)

query III
SELECT pow(0::int, 3::int), pow(3::int, 0::int), pow(-3::int, 0::int)
----
0 1 1

statement error zero raised to a negative power is undefined
SELECT pow(0::int, -3::int)

# Not supported by Materialize.
onlyif cockroach
# TODO(mjibson): This uses the decimal implementation internally, which
# returns NaN, hence the below error. However postgres returns 1 for this,
# which we should probably match.
statement error integer out of range
SELECT pow(0::int, 0::int)

query RRR
SELECT pow(-3.0::float, 2.0), power(3.0::float, 2.0), pow(5.0::decimal, 2.0)
----
9  9  25

# Not supported by Materialize.
onlyif cockroach
query R
SELECT pow(CAST (pi() AS DECIMAL), DECIMAL '2.0')
----
9.8696044010893571205

# Not supported by Materialize.
onlyif cockroach
query R
SELECT power(0::decimal, -1)
----
Infinity

# Not supported by Materialize.
onlyif cockroach
# TODO(mjibson): Postgres returns an error for this.
query R
SELECT power(-1, -.1)
----
NaN

query RR
SELECT radians(-45.0), radians(45.0)
----
-0.7853981633974483  0.7853981633974483

# Not supported by Materialize.
onlyif cockroach
query R
SELECT round(123.456::float, -2438602134409251682)
----
NaN

# Not supported by Materialize.
onlyif cockroach
query RRR
SELECT round(4.2::float, 0), round(4.2::float, 10), round(4.22222222::decimal, 3)
----
4 4.2 4.222

# Not supported by Materialize.
onlyif cockroach
query R
SELECT round(1e-308::float, 324)
----
1e-308

# Not supported by Materialize.
onlyif cockroach
# round to nearest even
query RRRR
SELECT round(-2.5::float, 0), round(-1.5::float, 0), round(1.5::float, 0), round(2.5::float, 0)
----
-2 -2 2 2

query RRRRRR
SELECT round(-2.5::float), round(-1.5::float), round(-0.0::float), round(0.0::float), round(1.5::float), round(2.5::float)
----
-2 -2 -0 0 2 2

# Not supported by Materialize.
onlyif cockroach
# some edge cases: denormal, 0.5-epsilon, 0.5+epsilon, 1 bit fractions, 1 bit fraction rounding to 0 bit fraction, large integer
query RRRRRRR
SELECT round(1.390671161567e-309::float), round(0.49999999999999994::float), round(0.5000000000000001::float), round(2251799813685249.5::float), round(2251799813685250.5::float), round(4503599627370495.5::float), round(4503599627370497::float)
----
0  0  1  2.25179981368525e+15  2.25179981368525e+15  4.5035996273705e+15  4.5035996273705e+15

# round up for decimals
# These results are indeed different than floats. Compare with postgres.
# Float rounding uses banker, decimal rounding uses half away from zero.
query RRRR
SELECT round(-2.5::decimal, 0), round(-1.5::decimal, 0), round(1.5::decimal, 0), round(2.5::decimal, 0)
----
-3 -2 2 3

query RRRRR
SELECT round(-2.5::decimal, 3), round(-1.5::decimal, 3), round(0.0::decimal, 3), round(1.5::decimal, 3), round(2.5::decimal, 3)
----
-2.5  -1.5  0  1.5  2.5

query RRRRR
SELECT round(-2.5::decimal), round(-1.5::decimal), round(0.0::decimal), round(1.5::decimal), round(2.5::decimal)
----
-3 -2 0 2 3

subtest round_max_prec

# Test rounding to 14 digits, because the logic test itself
# formats floats rounded to 15 digits behind the decimal point.

statement ok
SET extra_float_digits = 3

query RRR
SELECT round(-2.123456789, 5), round(2.123456789, 5), round(2.12345678901234567890, 14)
----
-2.12346 2.12346 2.12345678901235

# Not supported by Materialize.
onlyif cockroach
query RR
SELECT round(-1.7976931348623157e+308::float, 1), round(1.7976931348623157e+308::float, 1)
----
-1.7976931348623157e+308 1.7976931348623157e+308

# Not supported by Materialize.
onlyif cockroach
query RR
SELECT round(-1.7976931348623157e+308::float, -303), round(1.7976931348623157e+308::float, -303)
----
-1.79769e+308 1.79769e+308

# Not supported by Materialize.
onlyif cockroach
query RR
SELECT round(-1.23456789e+308::float, -308), round(1.23456789e+308::float, -308)
----
-1e+308 1e+308

# Not supported by Materialize.
onlyif cockroach
query RRRR
SELECT 1.234567890123456789::float, round(1.234567890123456789::float, 15), round(1.234567890123456789::float, 16), round(1.234567890123456789::float, 17)
----
1.2345678901234567 1.234567890123457 1.2345678901234567 1.2345678901234567

statement ok
SET extra_float_digits = 0

subtest round_low_prec

statement ok
SET extra_float_digits = -6

query RRR
SELECT round(-2.123456789, 5), round(2.123456789, 5), round(2.12345678901234567890, 14)
----
-2.12346 2.12346 2.12345678901235

# Not supported by Materialize.
onlyif cockroach
query RR
SELECT round(-1.7976931348623157e+308::float, 1), round(1.7976931348623157e+308::float, 1)
----
-1.79769313e+308  1.79769313e+308

# Not supported by Materialize.
onlyif cockroach
query RR
SELECT round(-1.7976931348623157e+308::float, -303), round(1.7976931348623157e+308::float, -303)
----
-1.79769e+308 1.79769e+308

# Not supported by Materialize.
onlyif cockroach
query RR
SELECT round(-1.23456789e+308::float, -308), round(1.23456789e+308::float, -308)
----
-1e+308 1e+308

# Not supported by Materialize.
onlyif cockroach
query RRRR
SELECT 1.234567890123456789::float, round(1.234567890123456789::float, 15), round(1.234567890123456789::float, 16), round(1.234567890123456789::float, 17)
----
1.23456789  1.23456789  1.23456789  1.23456789

statement ok
SET extra_float_digits = 0

subtest more_round_tests

# Not supported by Materialize.
onlyif cockroach
query RR
SELECT round(-1.7976931348623157e-308::float, 1), round(1.7976931348623157e-308::float, 1)
----
-0 0


# Not supported by Materialize.
onlyif cockroach
query RRR
SELECT round(123.456::float, -1), round(123.456::float, -2), round(123.456::float, -3)
----
120 100 0

query RRRRR
SELECT round(123.456::decimal, -1), round(123.456::decimal, -2), round(123.456::decimal, -3), round(123.456::decimal, -200), round(-0.1::decimal)
----
120  100  0  0  0

# Not supported by Materialize.
onlyif cockroach
query RRRR